submitit INFO (2023-04-30 19:21:49,230) - Starting with JobEnvironment(job_id=27537, hostname=cpunode26, local_rank=0(5), node=0(1), global_rank=0(5))
submitit INFO (2023-04-30 19:21:49,230) - Loading pickle: /h/30/pashootan/Matrix-Mult-CP/src/../logs/2x2x2_6_Apr30_19:21:46/27537_submitted.pkl
 ! --------------------------------------------------- CP Optimizer 22.1.1.0 --
 ! Satisfiability problem - 72 variables, 184 constraints
 ! TimeLimit            = 7200
 ! Workers              = 8
 ! LogPeriod            = 10000000
 ! RandomSeed           = 9769
 ! Initial process time : 0.02s (0.02s extraction + 0.00s propagation)
 !  . Log search space  : 114.1 (before), 114.1 (after)
 !  . Memory usage      : 535.3 kB (before), 535.3 kB (after)
 ! Using parallel search with 8 workers.
 ! ----------------------------------------------------------------------------
 !               Branches  Non-fixed    W       Branch decision
                   10000k          5    8        -1 != U3_2
                   10000k          5    2   F     0  = W2_0
                   10000k          4    5         1  = U4_1
                   10000k          4    4        -1  = V0_2
                   10000k          5    6   F     1  = W1_1
                   10000k          4    1   F    -1 != V1_3
                   10000k          7    3   F    -1 != U3_3
                   10000k          8    7        -1 != V0_0
                   20000k          5    8            -
                   20000k          4    1   F    -1 != V2_1
                   20000k          6    3   F    -1 != U0_0
                   20000k          6    7         0 != W2_0
                   20000k          4    5   F     1 != V1_3
                   20000k          5    6   F     1  = U5_2
                   20000k          5    2   F    -1 != V5_0
                   20000k          4    4   F     1 != W5_3
                   30000k          6    3   F    -1 != V5_1
                   30000k          5    8        -1  = V4_2
                   30000k          4    1   F     0 != U5_0
                   30000k          5    2   F    -1 != V1_3
 ! Time = 353.36s, Average fail depth = 15, Memory usage = 161.5 MB
 !               Branches  Non-fixed    W       Branch decision
                   30000k          8    7   F     0  = V2_1
                   30000k          4    5   F     1  = W1_1
                   30000k          5    6   F     0 != W2_2
                   30000k          4    4   F     1  = W0_2
                   40000k          8    3   F     0  = U0_1
                   40000k          6    8   F        -
                   40000k          4    1         1 != U0_3
                   40000k          5    2   F     0  = W1_0
                   40000k          4    4        -1 != W5_1
                   40000k          9    7         0  = W2_0
                   40000k          6    6         0 != U1_1
                   40000k          5    5         1  = V0_3
                   50000k          8    3   F     0  = W0_1
                   50000k          5    8        -1  = V3_2
                   50000k          4    1         0 != U1_1
                   50000k          4    4   F     1  = U1_0
                   50000k          7    7   F     1 != W0_1
                   50000k          6    2         1  = W3_1
                   50000k          5    6         0  = U2_3
                   50000k          5    5   F     1 != W0_0
 ! Time = 602.61s, Average fail depth = 15, Memory usage = 262.4 MB
 !               Branches  Non-fixed    W       Branch decision
                   60000k          5    8        -1  = W0_1
                   60000k          4    1         1  = W2_1
                   60000k          6    2   F    -1 != W1_1
                   60000k          8    3         0 != U2_0
                   60000k          4    4   F     0  = W0_1
                   60000k          7    7        -1 != W2_3
                   60000k          4    5   F    -1  = W4_2
                   60000k          6    6         0  = W2_0
                   70000k          6    8   F    -1 != V4_1
                   70000k          4    1         0  = U0_2
                   70000k          5    2         0 != W3_1
                   70000k          7    7   F     0  = W2_1
                   70000k          9    3        -1 != V1_1
                   70000k          4    4        -1 != U0_0
                   70000k          4    5   F     1 != U4_0
                   70000k          5    6         1 != U0_1
                   80000k          4    1   F     0 != V4_0
                   80000k          6    8   F     0  = U1_0
                   80000k          7    7   F     1 != W4_1
                   80000k          6    2   F    -1 != V1_0
 ! Time = 964.74s, Average fail depth = 15, Memory usage = 409.6 MB
 !               Branches  Non-fixed    W       Branch decision
                   80000k         10    3         0  = V0_2
                   80000k          4    4   F    -1 != W1_1
                   80000k          5    6         0 != V0_1
                   80000k          5    5         1  = V3_0
                   90000k          4    1        -1 != U1_3
                   90000k          5    8        -1  = U0_0
                   90000k          8    7         1 != W3_2
                   90000k         11    3   F    -1  = V0_3
                   90000k          5    2        -1 != V5_2
                   90000k          4    4   F     1  = W1_2
                   90000k          5    6         0 != W2_2
                   90000k          5    5        -1 != V0_3
                     100M          4    1   F     1  = U0_1
                     100M          6    8         0 != U1_1
                     100M          6    3   F     1 != U1_1
                     100M          6    2   F     1  = U3_2
                     100M          6    7   F    -1 != W3_3
                     100M          4    4         1 != V4_0
                     100M          6    6   F     0  = W1_2
                     100M          5    5   F     1 != W4_0
 ! Time = 1220.93s, Average fail depth = 15, Memory usage = 514.9 MB
 !               Branches  Non-fixed    W       Branch decision
                     110M          6    8            -
                     110M          4    1   F     1 != W3_1
                     110M          8    3   F    -1  = V5_0
                     110M          7    7         0 != W3_0
                     110M          5    2         1  = U4_2
                     110M          4    4         0  = W0_1
                     110M          5    6   F    -1 != U1_0
                     110M          5    5        -1 != W5_1
                     120M          5    8        -1 != V4_2
                     120M          7    7   F     0 != U2_0
                     120M          9    3         0  = V1_1
                     120M          4    1        -1 != W3_1
                     120M          4    4        -1 != W5_0
                     120M          5    2   F    -1 != U2_1
                     120M          4    6   F     0 != W4_2
                     120M          6    5   F     1 != W3_2
                     130M          5    8   F     0  = V2_2
                     130M          9    7         1  = V0_3
                     130M         11    3   F    -1 != U4_0
                     130M          4    4   F    -1  = V0_1
 ! Time = 1578.08s, Average fail depth = 15, Memory usage = 625.9 MB
 !               Branches  Non-fixed    W       Branch decision
                     130M          6    2        -1  = U5_2
                     130M          4    6         0 != U2_3
                     130M          4    1         0 != U1_1
                     130M          5    5         1 != U5_2
                     140M          5    8         1  = W0_0
                     140M          8    7   F     1  = U3_1
                     140M          6    3        -1 != U3_1
                     140M          4    4   F     1  = W5_0
                     140M          4    1         0  = U1_1
                     140M          5    6   F    -1 != V2_0
                     140M          6    2         1  = W5_3
                     140M          5    5   F     1 != U1_1
                     150M          5    8         0  = W4_1
                     150M         10    3   F     0  = V2_1
                     150M          7    7   F     1 != U1_1
                     150M          4    4   F     0  = U4_0
                     150M          4    1         1  = W5_2
                     150M          5    6   F     1 != W5_1
                     150M          5    2         1  = U4_1
                     150M          6    5   F    -1 != U1_1
 ! Time = 1835.29s, Average fail depth = 15, Memory usage = 707.4 MB
 !               Branches  Non-fixed    W       Branch decision
                     160M          4    8   F     1 != V3_2
                     160M         10    3   F     0 != V3_1
                     160M          8    7         1  = U1_0
                     160M          4    1   F     0  = V1_1
                     160M          4    4   F     0  = U2_1
                     160M          4    6         0 != V4_0
                     160M          6    2   F    -1  = W0_3
                     160M          5    5   F    -1  = U4_1
                     170M         12    3         1  = V0_2
                     170M          5    8        -1 != V1_1
                     170M          7    7         0  = W2_2
                     170M          4    1         0  = W1_0
                     170M          4    4   F     0  = V0_0
                     170M          4    6        -1 != U5_3
                     170M          6    2   F    -1 != W2_2
                     170M          6    5        -1 != W2_1
                     180M          5    8        -1 != V1_1
                     180M          8    3        -1 != V5_0
                     180M          4    1         0  = W3_1
                     180M          4    4   F    -1  = W3_2
 ! Time = 2183.90s, Average fail depth = 15, Memory usage = 839.0 MB
 !               Branches  Non-fixed    W       Branch decision
                     180M          7    7        -1 != V3_1
                     180M          4    6   F     1  = V2_0
                     180M          5    2   F     0 != U3_0
                     180M          6    5   F    -1 != W1_1
                     190M          5    8            -
                     190M         10    3   F     0  = W3_3
                     190M          4    1        -1  = V2_0
                     190M          7    7   F    -1 != V4_3
                     190M          4    4        -1 != V1_2
                     190M          4    6         1 != U4_0
                     190M          6    2   F     0  = W3_1
                     190M          5    5         1 != W5_3
                     200M         11    3   F     0  = W2_0
                     200M          5    8            -
                     200M          4    1   F    -1  = V2_2
                     200M          4    4   F     0  = W3_0
                     200M          4    6        -1 != V2_3
                     200M          7    7   F    -1  = U3_0
                     200M          6    2         1 != W5_3
                     200M          6    5   F     1 != W5_3
 ! Time = 2475.95s, Average fail depth = 15, Memory usage = 924.7 MB
 !               Branches  Non-fixed    W       Branch decision
                     210M          9    3         0 != U1_0
                     210M          6    8   F     1  = V5_3
                     210M          4    1         0 != W5_2
                     210M          4    4   F    -1  = W5_3
                     210M          5    6         0  = V4_0
                     210M          8    7         0 != U2_0
                     210M          6    2         0 != V2_3
                     210M          7    5   F    -1 != W1_2
                     220M         11    3   F     1 != W1_0
                     220M          5    8   F    -1 != V4_1
                     220M          4    1         1 != U4_3
                     220M          8    7        -1  = U3_2
                     220M          4    4         1  = V2_0
                     220M          5    6         1 != V0_0
                     220M          6    2         0  = V1_1
                     220M          8    5         1 != W5_3
                     230M          6    8   F     0 != W4_0
                     230M          4    1   F    -1 != W4_3
                     230M          7    3   F     0 != U2_2
                     230M          4    4         0 != U0_1
 ! Time = 2789.65s, Average fail depth = 15, Memory usage = 1.0 GB
 !               Branches  Non-fixed    W       Branch decision
                     230M          6    6         1  = V1_1
                     230M          7    7         0 != W3_3
                     230M          6    2         1 != W2_1
                     230M          8    5   F     1 != U2_0
                     240M          5    8        -1  = W4_1
                     240M          7    3        -1  = V2_3
                     240M          4    4   F     1  = U1_2
                     240M          4    1         0  = U3_3
                     240M          9    7   F     0 != V2_1
                     240M          4    6   F     0 != W2_2
                     240M          6    2         0 != U3_3
                     240M          9    5         1 != U3_0
                     250M          5    8   F     1  = W1_1
                     250M         12    7         0 != V5_1
                     250M          4    4   F    -1  = U4_2
                     250M         10    3         1  = W4_2
                     250M          4    1   F    -1 != W1_2
                     250M          4    6         1 != U2_3
                     250M          5    2   F     0  = V0_3
                     260M          6    8   F    -1  = W3_1
 ! Time = 3147.97s, Average fail depth = 15, Memory usage = 1.1 GB
 !               Branches  Non-fixed    W       Branch decision
                     250M          6    5   F    -1 != V0_0
                     260M         12    7   F     1  = V0_0
                     260M          4    4         0  = U3_2
                     260M          4    1         1  = U4_3
                     260M         10    3         0  = W5_3
                     260M          5    6         1  = U1_2
                     260M          6    2        -1  = V0_0
                     270M          6    8   F        -
                     270M          4    4        -1 != U3_1
                     260M          8    5        -1 != V4_0
                     270M          4    1   F     0 != V2_3
                     270M          8    7         1 != V5_1
                     270M          4    6         0 != U5_3
                     270M          8    3         1  = U4_0
                     270M          6    2   F     1 != V3_3
                     280M          5    8         0  = V1_1
                     280M          4    4         1 != V0_2
                     270M          6    5        -1 != W0_1
                     280M         10    7   F     0  = V3_1
                     280M          4    1         0 != V4_1
 ! Time = 3400.43s, Average fail depth = 16, Memory usage = 1.2 GB
 !               Branches  Non-fixed    W       Branch decision
                     280M          6    3   F     0 != W5_0
                     280M          4    6         0  = W5_1
                     280M          5    2         1 != V2_3
                     290M          4    4        -1  = U5_0
                     290M          6    8         0 != U5_1
                     280M          6    5   F    -1  = V4_1
                     290M          7    7   F    -1  = U2_0
                     290M          4    1   F     1  = W5_0
                     290M          9    3   F     1  = W4_3
                     290M          5    6        -1 != V3_3
                     290M          6    2   F     1  = V0_2
                     290M          5    5   F     1  = V2_0
                     300M          6    8         1 != U3_1
                     300M          4    4         0  = U5_1
                     300M          6    7        -1  = V5_0
                     300M          4    1         0 != U5_1
                     300M          7    3   F     0 != U2_0
                     300M          5    6   F     0  = W2_3
                     300M          6    2         1 != W2_1
                     310M          5    8        -1  = U3_0
 ! Time = 3756.27s, Average fail depth = 16, Memory usage = 1.3 GB
 !               Branches  Non-fixed    W       Branch decision
                     300M          5    5   F     0  = W4_3
                     310M          4    4   F     0  = V1_1
                     310M          4    1         0 != W1_1
                     310M          6    7   F     0  = U1_0
                     310M          7    3        -1  = V0_1
                     310M          4    6        -1 != W1_2
                     310M          6    2   F    -1  = V4_2
                     320M          5    8   F        -
                     320M          4    1   F    -1 != U2_2
                     320M          4    4         0  = V0_2
                     310M          5    5         0 != U0_2
                     320M          9    3   F     1 != W3_0
                     320M          6    7   F    -1 != V1_1
                     320M          4    6   F     0  = W0_0
                     320M          5    2   F     0  = V3_0
                     330M          6    8   F     0 != U2_0
                     330M          4    1   F     1  = U1_0
                     330M          6    3   F    -1 != U2_1
                     330M          4    4   F    -1  = U5_1
                     330M          6    7        -1  = U0_0
 ! Time = 4008.13s, Average fail depth = 16, Memory usage = 1.4 GB
 !               Branches  Non-fixed    W       Branch decision
                     320M          5    5         0 != V1_2
                     330M          6    6   F    -1  = W0_0
                     330M          6    2        -1  = W1_0
                     340M          4    8         1  = W5_0
                     340M          4    4   F     0 != V3_0
                     340M          4    1         1  = U0_0
                     340M         12    3   F    -1 != U2_3
                     340M          8    7   F     1  = V3_3
                     330M          6    5         1  = W4_0
                     340M          5    6   F     1  = W1_0
                     340M          6    2   F     1  = U2_2
                     350M          6    8         0  = W5_2
                     350M          4    4         1 != V3_1
                     350M          8    3         0  = U5_1
                     350M          4    1         1 != W0_2
                     350M         12    7         0 != U2_1
                     340M          6    5   F     1  = U0_0
                     350M          4    6        -1 != U5_0
                     350M          6    2        -1  = U3_2
                     360M          4    8         1 != W2_1
 ! Time = 4363.38s, Average fail depth = 16, Memory usage = 1.5 GB
 !               Branches  Non-fixed    W       Branch decision
                     360M          4    1   F     0  = U3_2
                     360M          6    3        -1  = V0_1
                     360M          4    4         1 != W0_2
                     360M         11    7         0 != U3_0
                     350M          6    5   F    -1 != V5_2
                     360M          6    6   F     0  = U3_1
                     360M          6    2         0  = U2_0
                     370M         15    3         0  = U2_1
                     370M          4    1   F    -1 != U1_3
                     370M          4    8   F    -1  = U1_0
                     370M          4    4        -1  = U1_1
                     370M         10    7   F    -1  = V3_1
                     360M          5    5   F    -1  = W5_1
                     370M          4    6         1 != U0_1
                     370M          6    2         0 != U1_1
                     380M         11    3         0 != V2_3
                     380M          4    1   F     0  = V1_2
                     380M          4    8        -1  = U1_0
                     380M          4    4   F     0  = V4_0
                     380M         15    7         1 != U3_3
 ! Time = 4611.59s, Average fail depth = 16, Memory usage = 1.6 GB
 !               Branches  Non-fixed    W       Branch decision
                     370M          6    5   F     0  = W5_0
                     380M          4    6   F     0  = V5_0
                     380M          6    2        -1 != V2_3
                     390M         10    3   F     1  = U4_1
                     390M          4    1         0 != W3_1
                     390M          4    8   F    -1 != V5_2
                     390M         11    7        -1 != V5_1
                     390M          4    4   F     1 != V5_1
                     380M          6    5        -1  = U0_1
                     390M          5    6   F     0  = W5_1
                     390M          6    2   F     0 != U4_3
                     400M          4    1         1 != U4_0
                     400M         12    7   F     1  = V2_0
                     400M          4    8            -
                     400M         10    3         0  = V0_2
                     400M          4    4   F    -1  = U2_0
                     390M          5    5   F     0  = U0_0
                     400M          6    2         1  = U0_2
                     400M          4    6         0 != W4_2
                     410M          4    1        -1 != V4_1
 ! Time = 4965.47s, Average fail depth = 16, Memory usage = 1.7 GB
 !               Branches  Non-fixed    W       Branch decision
                     410M         10    7         1 != U4_2
                     410M          4    8   F     0 != W5_1
                     410M          4    4   F     1  = U2_2
                     410M          6    3         0 != U3_0
                     400M          5    5   F     0  = V2_1
                     410M          6    6   F     1 != V2_3
                     410M          6    2   F    -1  = U1_1
                     420M          4    1        -1 != U5_0
                     420M          7    7         0  = V3_2
                     420M          4    8        -1  = V4_3
                     420M          4    4         0 != V0_1
                     410M          6    5   F    -1 != W3_2
                     420M          9    3         0 != V2_3
                     420M          6    6        -1  = U5_0
                     420M          6    2         1 != V2_3
                     430M          4    1   F    -1  = U2_0
                     430M         11    7        -1 != V1_3
                     430M          4    8   F     1 != U4_0
                     430M         15    3         0  = V1_2
                     430M          4    4   F     0 != U1_2
 ! Time = 5221.40s, Average fail depth = 16, Memory usage = 1.8 GB
 !               Branches  Non-fixed    W       Branch decision
                     420M          6    5   F     1 != W2_1
                     430M          6    6   F    -1  = U0_2
                     430M          6    2   F    -1  = U5_2
                     440M         15    7        -1 != U5_1
                     440M          4    1        -1  = W0_2
                     440M          5    8        -1 != W0_0
                     440M          8    3   F     0 != U2_1
                     430M          7    5         1 != W1_2
                     440M          4    4   F     0  = W1_2
                     440M          4    6   F     0 != V1_0
                     440M          5    2         0 != V4_2
                     450M          4    1   F     0  = V4_1
                     450M          6    8   F     0  = W3_3
                     450M          7    7   F     0 != V3_3
                     440M          6    5   F    -1  = W1_2
                     450M          4    4         1 != W2_1
                     450M         13    3   F    -1  = W0_2
                     450M          6    6   F     1  = W1_0
                     450M          6    2         0  = V5_2
                     460M          4    8        -1 != W2_1
 ! Time = 5575.58s, Average fail depth = 16, Memory usage = 1.9 GB
 !               Branches  Non-fixed    W       Branch decision
                     460M         11    7        -1  = U4_3
                     460M          4    1        -1  = V1_0
                     450M          5    5         1  = U3_3
                     460M          4    4         0  = V1_2
                     460M          7    3   F     1 != W0_2
                     460M          4    6        -1  = V4_2
                     460M          7    2        -1 != U1_0
                     470M         14    7         1  = V0_2
                     470M          4    1   F     1 != U4_2
                     470M          4    8   F    -1 != U5_2
                     470M          4    4   F     1  = V1_2
                     460M          6    5   F    -1  = V3_1
                     470M          4    6         1  = W0_2
                     470M          4    3   F    -1  = U1_3
                     470M          6    2   F     0  = U5_3
                     480M          4    1         1  = U0_0
                     480M          5    8   F    -1 != V4_1
                     480M          4    4         0 != U4_1
                     470M          6    5        -1  = V3_0
                     480M          5    6   F    -1  = V0_0
 ! Time = 5846.43s, Average fail depth = 16, Memory usage = 2.0 GB
 !               Branches  Non-fixed    W       Branch decision
                     480M          9    7   F     0  = U0_1
                     480M          7    3        -1  = U4_3
                     480M          7    2         1  = U0_0
                     490M          4    1         0 != U0_2
                     490M          4    8   F     1 != U2_0
                     490M          4    4   F     0  = V1_0
                     480M          5    5   F     1 != U2_1
                     490M          5    6         0 != U0_0
                     490M         13    7   F     0 != V5_2
                     490M          6    2   F     0 != V0_2
                     490M          9    3         0  = W3_3
                     500M          4    1   F     1 != U4_3
                     500M          4    8            -
                     500M          4    4   F     1  = U4_3
                     490M          6    5   F     0 != U1_1
                     500M         10    7   F    -1  = V2_2
                     500M          5    6         1  = V0_2
                     500M         15    3        -1  = V1_1
                     500M          6    2        -1 != V0_0
                     510M          4    1         0  = U3_0
 ! Time = 6157.63s, Average fail depth = 16, Memory usage = 2.1 GB
 !               Branches  Non-fixed    W       Branch decision
                     510M          4    8         0 != V5_1
                     510M          4    4         0  = V0_0
                     500M          6    5   F    -1  = U2_1
                     510M         15    7        -1 != V0_1
                     510M          6    6         1  = V1_1
                     510M          6    2   F     0 != V4_0
                     510M          8    3         0  = V4_0
                     520M          4    1         1  = V1_1
                     520M          4    8            -
                     520M          4    4   F     0  = V5_0
                     520M          6    7   F    -1 != U5_2
                     510M          5    5   F     1 != W5_3
                     520M          5    6   F     1  = W2_3
                     520M          5    2   F     1  = V1_3
                     520M          8    3        -1  = V0_0
                     530M          4    1        -1 != U3_0
                     530M          4    8         0  = V4_2
                     530M          4    4         1  = W0_1
                     530M          7    7        -1  = U0_1
                     520M          6    5         1 != U1_0
 ! Time = 6445.97s, Average fail depth = 16, Memory usage = 2.2 GB
 !               Branches  Non-fixed    W       Branch decision
                     530M          6    6   F    -1 != U2_1
                     530M          5    2   F     0  = U4_3
                     530M         13    3   F    -1 != U2_1
                     540M          4    1         0 != U4_3
                     540M          5    8        -1 != V0_1
                     540M          4    4   F     1 != U4_1
                     540M         13    7         1 != V0_0
                     530M          6    5         1 != V0_1
                     540M          6    6         0 != V4_3
                     540M          6    2   F    -1 != W2_2
                     540M         12    3   F    -1  = U0_0
                     550M          4    1   F     1 != W3_0
                     550M          5    8   F     1  = V3_3
                     550M          4    4        -1  = V3_3
                     550M          8    7        -1  = W2_1
                     550M          6    6         0 != U2_3
                     540M          6    5        -1 != W5_0
                     550M          6    2         0 != V3_2
                     550M         10    3   F    -1  = W4_2
                     560M          4    1   F     1  = W2_2
 ! Time = 6773.83s, Average fail depth = 16, Memory usage = 2.3 GB
 !               Branches  Non-fixed    W       Branch decision
                     560M          4    8         1 != W1_3
                     560M          4    4         0 != W0_2
                     560M          6    6         1 != W3_0
                     560M          8    7         0 != W3_1
                     550M          6    5   F    -1 != U1_1
                     560M          6    2   F     1  = W3_2
                     560M          8    3         0  = V5_0
                     570M          4    1         1  = W3_0
                     570M          4    8         1  = W0_0
                     570M          4    4         1 != W3_0
                     570M          5    6   F     1 != V2_0
                     560M          6    5        -1 != W1_1
                     570M         10    7        -1 != U0_3
                     570M          5    2        -1 != W4_0
                     570M          8    3        -1 != V1_2
                     580M          4    1         0 != V4_2
                     580M          4    8        -1 != V4_0
                     580M          4    4   F     1 != W1_1
                     580M          6    6        -1  = W2_3
                     580M          8    7   F     0  = V2_1
 ! Time = 7070.36s, Average fail depth = 16, Memory usage = 2.4 GB
 !               Branches  Non-fixed    W       Branch decision
                     570M          6    5   F    -1  = U1_2
                     580M          6    2         1 != W2_2
                     580M         15    3   F     0 != V1_1
                     590M          4    1         0  = W2_2
                     590M          4    8         1  = V3_2
                     590M          4    4        -1  = W3_3
                     590M          5    6   F     1  = W4_3
submitit INFO (2023-04-30 21:21:12,351) - Job has timed out. Ran 119 minutes out of requested 121 minutes.
submitit WARNING (2023-04-30 21:21:12,351) - Caught signal SIGUSR2 on cpunode26: this job is timed-out.
submitit INFO (2023-04-30 21:21:12,351) - Job not requeued because: timed-out and not checkpointable.
submitit WARNING (2023-04-30 21:21:12,350) - Bypassing signal SIGCONT
                     590M         15    7   F     0 != V2_2
                     580M          6    5   F     0  = V1_2
                     590M          6    2   F     0  = U0_1
 ! ----------------------------------------------------------------------------
 ! Search terminated by limit, no solution found.
 ! ----------------------------------------------------------------------------
 ! Number of branches     : 4731513522
 ! Number of fails        : 2313144260
 ! Total memory usage     : 2.6 GB (2.6 GB CP Optimizer + 0.0 GB Concert)
 ! Time spent in solve    : 7200.04s (7200.03s engine + 0.02s extraction)
 ! Search speed (br. / s) : 657151.9
 ! ----------------------------------------------------------------------------
Unknown
Saving stats to: /h/30/pashootan/Matrix-Mult-CP/logs/2x2x2_6_Apr30_19:21:46/27537_0_stats.csv
submitit INFO (2023-04-30 21:21:50,133) - Job completed successfully
